
Gurobi 11.0.3 (linux64) logging started Mon Nov 17 20:35:17 2025

Set parameter LogFile to value "./log/train/CA_650_1000_0.7_threads_0/CA_0.lp.log"
Set parameter TimeLimit to value 3600
Gurobi Optimizer version 11.0.3 build v11.0.3rc0 (linux64 - "Ubuntu 22.04.5 LTS")

CPU model: AMD Ryzen 9 9900X 12-Core Processor, instruction set [SSE2|AVX|AVX2|AVX512]
Thread count: 12 physical cores, 24 logical processors, using up to 24 threads

Optimize a model with 1026 rows, 650 columns and 3379 nonzeros
Model fingerprint: 0x6b043998
Variable types: 0 continuous, 650 integer (650 binary)
Coefficient statistics:
  Matrix range     [1e+00, 1e+00]
  Objective range  [3e+00, 1e+03]
  Bounds range     [1e+00, 1e+00]
  RHS range        [1e+00, 1e+00]
Found heuristic solution: objective 29404.260663
Presolve removed 257 rows and 91 columns
Presolve time: 0.01s
Presolved: 769 rows, 559 columns, 3043 nonzeros
Found heuristic solution: objective 34757.880547
Variable types: 0 continuous, 559 integer (559 binary)
Found heuristic solution: objective 36613.067702

Root relaxation: objective 4.473958e+04, 1400 iterations, 0.04 seconds (0.08 work units)

    Nodes    |    Current Node    |     Objective Bounds      |     Work
 Expl Unexpl |  Obj  Depth IntInf | Incumbent    BestBd   Gap | It/Node Time

     0     0 44739.5801    0  347 36613.0677 44739.5801  22.2%     -    0s
H    0     0                    38111.288053 44739.5801  17.4%     -    0s
H    0     0                    38618.336354 44739.5801  15.9%     -    0s
     0     0 44653.4187    0  356 38618.3364 44653.4187  15.6%     -    0s
H    0     0                    39134.401021 44653.4187  14.1%     -    0s
     0     0 44548.2410    0  359 39134.4010 44548.2410  13.8%     -    0s
     0     0 44244.1863    0  366 39134.4010 44244.1863  13.1%     -    0s
     0     0 44244.1863    0  366 39134.4010 44244.1863  13.1%     -    0s
H    0     0                    39767.985195 44244.1863  11.3%     -    0s
     0     2 44244.1863    0  366 39767.9852 44244.1863  11.3%     -    0s
H   28    40                    39802.725701 43957.7721  10.4%   313    0s
H   29    40                    39842.298553 43957.7721  10.3%   308    0s
H   66    87                    39894.938152 43957.7721  10.2%   240    0s
H   70    87                    39902.137742 43957.7721  10.2%   235    0s
H   75    87                    40061.838800 43957.7721  9.72%   238    0s
H   87   104                    41589.495836 43957.7721  5.69%   232    0s
H  123   118                    42042.059167 43957.7721  4.56%   209    0s
*  130   118              14    42171.701350 43957.7721  4.24%   205    0s
H  146   109                    42184.525254 43876.8078  4.01%   208    0s
H  172   117                    42198.106682 43876.8078  3.98%   186    0s

Cutting planes:
  Gomory: 2
  Clique: 17
  MIR: 1
  Zero half: 6
  RLT: 4
  BQP: 4

Explored 1592 nodes (219377 simplex iterations) in 1.65 seconds (4.99 work units)
Thread count was 24 (of 24 available processors)

Solution count 10: 42198.1 42184.5 42171.7 ... 39802.7

Optimal solution found (tolerance 1.00e-04)
Best objective 4.219810668234e+04, best bound 4.219810668234e+04, gap 0.0000%

User-callback calls 3964, time in user-callback 0.00 sec
